c   #vars: 45   #clauses: 178   #literals: 496
c 
p cnf 45 178
-1 -2 0
-3 -4 0
-5 -6 0
-8 -9 0
-10 -11 0
-13 -14 0
30 38 39 -42 0
-16 -17 0
-18 -19 0
-20 -21 0
-22 -23 0
-24 -25 0
-26 -27 0
-28 -29 0
12 -28 -44 -45 0
15 -16 20 21 0
-8 30 42 43 0
13 14 -18 33 0
-31 -32 0
10 11 26 27 0
5 6 22 23 0
-34 -35 0
-36 -37 0
-38 -39 0
16 17 40 41 0
-40 -41 0
5 6 26 27 0
-42 -43 0
-44 -45 0
5 6 44 45 0
22 23 44 45 0
7 42 43 -44 0
5 6 31 32 0
-1 -18 0
-2 -19 0
30 -38 42 43 0
-1 -24 0
-2 -25 0
-1 -34 0
-2 -35 0
28 29 44 45 0
-1 -38 0
-2 -39 0
7 -28 42 43 0
-3 -22 0
-4 -23 0
12 -16 -44 -45 0
-3 -31 0
-4 -32 0
5 6 24 25 0
-3 -40 0
-4 -41 0
-13 -16 -17 33 0
-3 -42 0
-4 -43 0
20 21 38 39 0
-5 -22 0
-6 -23 0
13 14 28 29 0
-5 -24 0
-6 -25 0
-5 -26 0
-6 -27 0
18 19 34 35 0
-5 -31 0
-6 -32 0
1 2 38 39 0
-5 -36 0
-6 -37 0
20 21 34 35 0
-5 -44 0
-6 -45 0
-7 -29 0
22 23 36 37 0
7 28 29 -44 0
-10 -16 -17 33 0
-7 -43 0
15 16 17 -31 0
15 16 17 -20 0
-7 -45 0
-8 -20 0
-9 -21 0
-8 -26 0
-9 -27 0
-10 13 14 33 0
-9 -30 0
-8 -42 0
-9 -43 0
-10 -22 0
-11 -23 0
-16 -17 -18 33 0
-10 -26 0
-11 -27 0
3 4 22 23 0
-11 -33 0
8 9 26 27 0
-10 -36 0
-11 -37 0
7 -42 44 45 0
-12 -17 0
7 -28 44 45 0
-12 -29 0
3 4 42 43 0
10 11 22 23 0
8 9 42 43 0
1 2 18 19 0
-13 -20 0
-14 -21 0
-13 -28 0
-14 -29 0
8 9 20 21 0
-14 -33 0
-10 18 19 33 0
-13 -44 0
-14 -45 0
15 -20 31 32 0
7 28 29 -42 0
15 -16 31 32 0
5 6 36 37 0
-8 30 38 39 0
-15 -17 0
3 4 40 41 0
8 9 30 -42 0
-15 -21 0
13 14 44 45 0
8 9 30 -38 0
-15 -32 0
12 -16 -22 -23 0
-16 -40 0
-17 -41 0
26 27 38 39 0
-16 -42 0
-17 -43 0
1 2 24 25 0
-19 -33 0
12 -16 28 29 0
-18 -34 0
-19 -35 0
12 -22 -23 -28 0
-18 -40 0
-19 -41 0
1 2 34 35 0
-20 -31 0
-21 -32 0
24 25 36 37 0
-20 -34 0
-21 -35 0
24 25 40 41 0
-20 -38 0
-21 -39 0
-13 18 19 33 0
-22 -36 0
-23 -37 0
-22 -44 0
-23 -45 0
13 14 20 21 0
26 27 34 35 0
-24 -36 0
-25 -37 0
-24 -40 0
-25 -41 0
10 11 36 37 0
-26 -34 0
-27 -35 0
18 19 40 41 0
-26 -38 0
-27 -39 0
16 17 42 43 0
3 4 31 32 0
-28 -44 0
-29 -45 0
15 20 21 -31 0
12 16 17 -28 0
10 11 -18 33 0
-30 -39 0
20 21 31 32 0
10 11 -13 33 0
-30 -43 0
